(declare-fun temp3610_1 () (_ BitVec 64))
(declare-fun temp3610_2 () (_ BitVec 64))
(declare-fun var82411 () (_ BitVec 64))
(declare-fun k!0 () Bool)
(declare-fun ARGNAME_input_NAMEEND_DIM () (_ BitVec 64))
(declare-fun temp3610_3 () (_ BitVec 64))
(declare-fun var82440 () (_ BitVec 64))
(declare-fun var82441 () (_ BitVec 64))
(declare-fun temp3610_4 () (_ BitVec 64))
(declare-fun ARGNAME_sections_NAMEEND () (_ BitVec 64))
(declare-fun var82444 () (_ BitVec 64))
(declare-fun temp3610_5 () (_ BitVec 64))
(declare-fun var82455 () (_ BitVec 64))
(declare-fun temp3610_6 () (_ BitVec 64))
(declare-fun temp3610_7 () (_ BitVec 64))
(declare-fun ARGNAME_input_NAMEEND_DIMSIZE
             ()
             (Array (_ BitVec 64) (_ BitVec 64)))
(declare-fun temp3610_8 () (_ BitVec 64))
(declare-fun temp3610_9 () (_ BitVec 64))
(declare-fun temp3610_10 () (_ BitVec 64))
(declare-fun temp3610_11 () (_ BitVec 64))
(declare-fun temp3610_12 () (_ BitVec 64))
(declare-fun temp3610_13 () (_ BitVec 64))
(declare-fun temp3610_14 () (_ BitVec 64))
(declare-fun temp3610_15 () (_ BitVec 64))
(declare-fun temp3610_16 () (_ BitVec 64))
(declare-fun temp3610_17 () (_ BitVec 64))
(declare-fun temp3610_18 () (_ BitVec 64))
(declare-fun temp3610_19 () (_ BitVec 64))
(declare-fun temp3610_20 () (_ BitVec 64))
(declare-fun temp3610_21 () (_ BitVec 64))
(declare-fun temp3610_22 () (_ BitVec 64))
(declare-fun temp3610_23 () (_ BitVec 64))
(declare-fun temp3610_25 () (_ BitVec 64))
(declare-fun temp3610_26 () (_ BitVec 64))
(declare-fun temp3610_24 () (_ BitVec 64))
(declare-fun var82459 () (_ BitVec 64))
(declare-fun temp3610_27 () (_ BitVec 64))
(declare-fun var82460 () (_ BitVec 64))
(declare-fun temp3610_28 () (_ BitVec 64))
(declare-fun var82496 () (_ BitVec 64))
(declare-fun var140605 () (_ BitVec 64))
(declare-fun temp3610_29 () (_ BitVec 64))
(declare-fun var140635 () (_ BitVec 64))
(declare-fun temp3610_30 () (_ BitVec 64))
(declare-fun temp3610_31 () (_ BitVec 64))
(declare-fun var140664 () (_ BitVec 64))
(declare-fun temp3610_32 () (_ BitVec 64))
(declare-fun temp3610_34 () (_ BitVec 64))
(declare-fun temp3610_33 () (_ BitVec 64))
(declare-fun temp3610_36 () (_ BitVec 64))
(declare-fun temp3610_35 () (_ BitVec 64))
(declare-fun var462146 () (_ BitVec 64))
(declare-fun temp3610_37 () (_ BitVec 64))
(declare-fun temp3610_38 () (_ BitVec 64))
(declare-fun var527687 () (_ BitVec 64))
(declare-fun var593234 () (_ BitVec 64))
(declare-fun temp3610_39 () (_ BitVec 64))
(declare-fun var1130139 () (_ BitVec 64))
(declare-fun temp3610_40 () (_ BitVec 64))
(declare-fun var1130188 () (_ BitVec 64))
(declare-fun temp3610_41 () (_ BitVec 64))
(declare-fun temp3610_42 () (_ BitVec 64))
(declare-fun var1380938 () (_ BitVec 64))
(declare-fun temp3610_43 () (_ BitVec 64))
(declare-fun var2101834 () (_ BitVec 64))
(declare-fun temp3610_44 () (_ BitVec 64))
(declare-fun var1130305 () (_ BitVec 64))
(declare-fun temp3610_45 () (_ BitVec 64))
(declare-fun temp3610_46 () (_ BitVec 64))
(declare-fun var3291804 () (_ BitVec 64))
(declare-fun var3291808 () (_ BitVec 64))
(declare-fun temp3610_48 () (_ BitVec 64))
(declare-fun temp3610_47 () (_ BitVec 64))
(assert (= temp3610_1 #x0000000000000001))
(assert (= var82411
   (ite (bvslt ARGNAME_input_NAMEEND_DIM temp3610_1)
        #x0000000000000001
        #x0000000000000000)))
(assert (= temp3610_2 #x0000000000000000))
(assert (= var82411 temp3610_2))
(assert (= temp3610_3 #x0000000000000001))
(assert (= var82440
   (ite (distinct ARGNAME_input_NAMEEND_DIM temp3610_3)
        #x0000000000000001
        #x0000000000000000)))
(assert (= var82441 var82440))
(assert (= temp3610_4 #x0000000000000000))
(assert (= var82444
   (ite (= ARGNAME_sections_NAMEEND temp3610_4)
        #x0000000000000001
        #x0000000000000000)))
(assert (= temp3610_5 #x0000000000000000))
(assert (= var82444 temp3610_5))
(assert (= var82455 var82441))
(assert (= temp3610_6 #x0000000000000000))
(assert (= temp3610_7 temp3610_6))
(assert (= temp3610_8 (select ARGNAME_input_NAMEEND_DIMSIZE temp3610_7)))
(assert (= temp3610_9 #x0000000000000001))
(assert (= temp3610_10 temp3610_9))
(assert (= temp3610_11 (select ARGNAME_input_NAMEEND_DIMSIZE temp3610_10)))
(assert (= temp3610_12 #x0000000000000002))
(assert (= temp3610_13 temp3610_12))
(assert (= temp3610_14 (select ARGNAME_input_NAMEEND_DIMSIZE temp3610_13)))
(assert (= temp3610_15 #x0000000000000003))
(assert (= temp3610_16 temp3610_15))
(assert (= temp3610_17 (select ARGNAME_input_NAMEEND_DIMSIZE temp3610_16)))
(assert (= temp3610_18 #x0000000000000004))
(assert (= temp3610_19 temp3610_18))
(assert (= temp3610_20 (select ARGNAME_input_NAMEEND_DIMSIZE temp3610_19)))
(assert (= temp3610_21 #x0000000000000005))
(assert (= temp3610_22 temp3610_21))
(assert (= temp3610_23 (select ARGNAME_input_NAMEEND_DIMSIZE temp3610_22)))
(assert (= temp3610_25 var82455))
(assert (= temp3610_26 (select ARGNAME_input_NAMEEND_DIMSIZE temp3610_25)))
(assert (= temp3610_24 temp3610_26))
(assert (= var82459 (bvsmod temp3610_24 ARGNAME_sections_NAMEEND)))
(assert (= temp3610_27 #x0000000000000000))
(assert (= var82460
   (ite (= var82459 temp3610_27) #x0000000000000001 #x0000000000000000)))
(assert (= temp3610_28 #x0000000000000001))
(assert (= var82460 temp3610_28))
(assert (= var82496 var82441))
(assert (= var140605 var82496))
(assert (= temp3610_29 #x0000000000000001))
(assert (= var140635
   (ite (bvslt ARGNAME_input_NAMEEND_DIM temp3610_29)
        #x0000000000000001
        #x0000000000000000)))
(assert (= temp3610_30 #x0000000000000000))
(assert (= var140635 temp3610_30))
(assert (= temp3610_31 #x0000000000000001))
(assert (= var140664
   (ite (bvslt ARGNAME_sections_NAMEEND temp3610_31)
        #x0000000000000001
        #x0000000000000000)))
(assert (= temp3610_32 #x0000000000000000))
(assert (= var140664 temp3610_32))
(assert (= temp3610_34 #x0000000000000000))
(assert (= temp3610_33 temp3610_34))
(assert (= temp3610_36 #x0000000000000000))
(assert (= temp3610_35 temp3610_36))
(assert (= var462146
   (ite (bvslt temp3610_35 ARGNAME_sections_NAMEEND)
        #x0000000000000001
        #x0000000000000000)))
(assert (= temp3610_37
   (ite (= var462146 #x0000000000000001) ARGNAME_sections_NAMEEND temp3610_35)))
(assert (= temp3610_38 #x0000000000000000))
(assert (= var527687 temp3610_38))
(assert (= var593234 var527687))
(assert (= temp3610_39 #x0000000000000001))
(assert (= var1130139 temp3610_39))
(assert (= temp3610_40 #x0000000000000000))
(assert (= var1130188
   (ite (= ARGNAME_input_NAMEEND_DIM temp3610_40)
        #x0000000000000001
        #x0000000000000000)))
(assert (= temp3610_41 #x0000000000000000))
(assert (= var1130188 temp3610_41))
(assert (= temp3610_42 #x0000000000000005))
(assert (= var1380938 temp3610_42))
(assert (= temp3610_43 #x0000000000000005))
(assert (= var2101834 temp3610_43))
(assert (= temp3610_44 #x0000000000000001))
(assert (= var1130305
   (ite (bvslt var1130139 temp3610_44) #x0000000000000001 #x0000000000000000)))
(assert (= temp3610_45 #x0000000000000000))
(assert (= var1130305 temp3610_45))
(assert (= temp3610_46 #x0000000000000000))
(assert (= var3291804 temp3610_46))
(assert (= var3291808 var1130139))
(assert (= temp3610_48 #x0000000000000000))
(assert (= temp3610_47 temp3610_48))
(model-add temp3610_1 () (_ BitVec 64) #x0000000000000001)
(model-add temp3610_2 () (_ BitVec 64) #x0000000000000000)
(model-add var82411 () (_ BitVec 64) #x0000000000000000)
(model-del k!0)
(model-add ARGNAME_input_NAMEEND_DIM
           ()
           (_ BitVec 64)
           (ite (or k!0 (= #x0000000000000001 #x8000000000000000))
                #x0000000000000001
                (bvsub #x0000000000000001 #x0000000000000001)))





